gas.lp
\ LP format - for model browsing. Use MPS format to capture full model detail.
Minimize
  48 ing + 43 ing + 58 ing + 46 ing
Subject To
 Least: ing + ing + ing + ing = 1
 MaxBlendIndex1: 9 ing - 20 ing - 12 ing + ing <= 0
 MaxBlendIndex2: - 70 ing + 55 ing - 15 ing <= 0
 MinBlendIndex1: 14 ing - 15 ing - 7 ing + 6 ing >= 0
 MinBlendIndex2: - 60 ing + 65 ing + 10 ing - 5 ing >= 0
Bounds
End
