gas.sol
# Objective value = 4.5294117647058826e+01
C0(5) 1.7647058823529413e-01
C1(5) 3.5294117647058826e-01
C2(4) 0
C3(5) 4.7058823529411759e-01
